/* Objective function */
min: +C17 +C18 +C19 +C20;

/* Constraints */
+15 C1 +72 C2 +51 C3 +12 C4 -75 C17 <= 0;
+15 C5 +72 C6 +51 C7 +12 C8 -75 C18 <= 0;
+15 C9 +72 C10 +51 C11 +12 C12 -75 C19 <= 0;
+15 C13 +72 C14 +51 C15 +12 C16 -75 C20 <= 0;
+152 C1 +134 C2 +98 C3 +94 C4 -186 C17 <= 0;
+152 C5 +134 C6 +98 C7 +94 C8 -186 C18 <= 0;
+152 C9 +134 C10 +98 C11 +94 C12 -186 C19 <= 0;
+152 C13 +134 C14 +98 C15 +94 C16 -186 C20 <= 0;
+C1 +C5 +C9 +C13 = 1;
+C2 +C6 +C10 +C14 = 1;
+C3 +C7 +C11 +C15 = 1;
+C4 +C8 +C12 +C16 = 1;

/* Variable bounds */
C1 <= 1;
C2 <= 1;
C3 <= 1;
C4 <= 1;
C5 <= 1;
C6 <= 1;
C7 <= 1;
C8 <= 1;
C9 <= 1;
C10 <= 1;
C11 <= 1;
C12 <= 1;
C13 <= 1;
C14 <= 1;
C15 <= 1;
C16 <= 1;
C17 <= 1;
C18 <= 1;
C19 <= 1;
C20 <= 1;

/* Integer definitions */
int C1,C2,C3,C4,C5,C6,C7,C8,C9,C10,C11,C12,C13,C14,C15,C16,C17,C18,C19,C20;
